4 
5  41 56 
6  11 26 41 56 
7  12 27 42 57 
8  12 27 42 57 
9  12 27 42 59 
10  14 29 44 59 
11  14 29 44 59 
12  14 29 44 59 
13  14 29 44 59 
14  14 29 44 56 
15  11 27 42 57 
16  12 27 42 57 
17  12 27 42 57 
18  12 27 42 57 
19  12 30 44 56 
20  10 25 
21 
